Test: battleship-14-26-sat.cnf
Options: -no-inverting-opt -activity-nl-freq=1
WARNING: for repeatability, setting FPU to use double precision
============================[ Problem Statistics ]=============================
|                                                                             |
|  Number of symmetries:           17                                         |
|  Number of invertingSyms:         0                                         |
|  Number of variables:           364                                         |
|  Number of clauses:            2562                                         |
|  Parse time:                   0.00 s                                       |
|                                                                             |
============================[ Search Statistics ]==============================
| Conflicts |          ORIGINAL         |          LEARNT          | Progress |
|           |    Vars  Clauses Literals |    Limit  Clauses Lit/Cl |          |
===============================================================================
|       100 |     364     2562     9828 |      939      110    154 |  0.001 % |
|       250 |     364     2562     9828 |     1033      302    125 |  0.001 % |
|       475 |     364     2562     9828 |     1136      590    124 |  0.001 % |
|       812 |     364     2562     9828 |     1250     1012    125 |  0.001 % |
|      1318 |     364     2562     9828 |     1375     1012    129 |  0.001 % |
|      2077 |     364     2562     9828 |     1512     1334    143 |  0.001 % |
|      3216 |     364     2562     9828 |     1664     1149    138 |  0.001 % |
|      4924 |     364     2562     9828 |     1830     1549    147 |  0.001 % |
|      7486 |     364     2562     9828 |     2013     1862    155 |  0.001 % |
|     11330 |     364     2562     9828 |     2215     1437    129 |  0.001 % |
|     17096 |     364     2562     9828 |     2436     1792    138 |  0.001 % |
|     25745 |     364     2562     9828 |     2680     1600    123 |  0.001 % |
|     38719 |     364     2562     9828 |     2948     2805    160 |  0.001 % |
|     58180 |     364     2562     9828 |     3243     2990    159 |  0.001 % |
|     87372 |     364     2562     9828 |     3567     1987    152 |  0.001 % |
|    131161 |     364     2562     9828 |     3924     3436    140 |  0.001 % |
|    196845 |     364     2562     9828 |     4316     2858    142 |  0.001 % |
|    295371 |     364     2562     9828 |     4748     2882    159 |  0.001 % |
|    443160 |     364     2562     9828 |     5222     4396    150 |  0.001 % |
|    664843 |     364     2562     9828 |     5745     5040    151 |  0.001 % |
|    997368 |     364     2562     9828 |     6319     3669    149 |  0.001 % |
|   1496156 |     364     2562     9828 |     6951     6246    150 |  0.001 % |
|   2244338 |     364     2562     9828 |     7646     4650    155 |  0.001 % |
|   3366612 |     364     2562     9828 |     8411     5624    163 |  0.001 % |
===============================================================================
restarts              : 8190
conflicts             : 4778236        (16408 /sec)
symconflicts          : 337906         (1160 /sec)
decisions             : 9047611        (0.00 % random) (31069 /sec)
propagations          : 107200364      (368120 /sec)
sympropagations       : 1372441        (4713 /sec)
conflict literals     : 756629763      (5.69 % deleted)
literals     : 756629763      (5.69 % deleted)

HEURISTIC USAGES
random                : 0           
activity w/ lookahead : 0           
activity no lookahead : 9047610     
original sp           : 0           
sym count             : 0           

Memory used           : 33.00 MB
CPU time              : 291.21 s

SATISFIABLE
